p cnf 11 21
-2 -3 -7 -8 0
-2 -5 -8 0
-1 -2 -8 0
-1 -7 -10 0
-4 -7 -9 0
-4 -8 -9 -10 0
-1 -8 -11 0
-1 -8 -10 0
-1 -9 -10 0
-3 -5 -10 0
-4 -5 -10 0
-5 -7 -10 0
-7 -9 -10 0
-7 -8 -9 0
-3 -4 -5 -12 0
-3 -8 -9 -10 0
-5 -8 -10 -11 0
-5 -8 -10 -12 0
-5 -7 -11 -12 0
-5 -7 -9 -12 0
-7 -10 -12 0
